<number of tasks>
53

<cycle time>
2004

<task times>
1 971
2 142
3 142
4 142
5 103
6 96
7 99
8 1207
9 160
10 180
11 82
12 60
13 112
14 420
15 1556
16 236
17 259
18 125
19 601
20 80
21 80
22 70
23 89
24 89
25 105
26 330
27 132
28 69
29 99
30 70
31 70
32 158
33 191
34 70
35 53
36 50
37 125
38 353
39 70
40 128
41 65
42 1775
43 91
44 91
45 113
46 487
47 138
48 80
49 80
50 65
51 40
52 742
53 1085

<precedence relations>
1,2
1,3
1,4
1,5
1,6
1,7
2,36
3,36
4,9
5,9
6,9
7,9
8,9
9,10
10,11
11,12
12,13
12,14
12,15
13,16
13,17
13,18
14,22
15,16
15,17
16,29
16,30
16,31
17,19
18,42
19,20
19,21
19,22
20,23
21,24
22,25
23,36
24,36
25,26
26,27
27,28
28,29
28,30
28,31
28,32
28,33
28,34
29,35
30,35
31,35
32,35
33,35
34,35
35,36
36,37
37,38
37,39
37,40
38,41
39,41
40,41
41,42
42,43
42,44
42,45
42,46
42,47
43,48
44,49
45,51
45,52
46,50
47,51
47,52
48,51
48,52
49,51
49,52
50,51
50,52
51,53
52,53

<setup times forward>
1,2:92
1,3:36
1,4:32
1,5:22
1,6:53
1,7:5
1,8:82
2,3:128
2,4:60
2,5:70
2,6:145
2,7:97
2,8:174
2,9:44
2,10:127
2,11:197
2,12:106
2,13:69
2,14:27
2,15:212
2,16:200
2,17:7
2,18:116
2,19:72
2,20:29
2,21:33
2,22:173
2,23:39
2,24:117
2,25:134
2,26:182
2,27:226
2,28:73
2,29:202
2,30:99
2,31:30
2,32:12
2,33:90
2,34:94
2,35:221
2,36:67
3,2:128
3,4:68
3,5:58
3,6:17
3,7:31
3,8:46
3,9:84
3,10:1
3,11:69
3,12:22
3,13:59
3,14:101
3,15:84
3,16:72
3,17:121
3,18:12
3,19:56
3,20:99
3,21:95
3,22:45
3,23:89
3,24:11
3,25:6
3,26:54
3,27:98
3,28:55
3,29:74
3,30:29
3,31:98
3,32:116
3,33:38
3,34:34
3,35:93
3,36:61
4,2:60
4,3:68
4,5:10
4,6:85
4,7:37
4,8:114
4,9:16
5,2:70
5,3:58
5,4:10
5,6:75
5,7:27
5,8:104
5,9:26
6,2:145
6,3:17
6,4:85
6,5:75
6,7:48
6,8:29
6,9:101
7,2:97
7,3:31
7,4:37
7,5:27
7,6:48
7,8:77
7,9:53
8,1:82
8,2:174
8,3:46
8,4:114
8,5:104
8,6:29
8,7:77
8,9:130
9,2:44
9,3:84
9,10:83
10,2:127
10,3:1
10,11:70
11,2:197
11,3:69
11,12:91
12,2:106
12,3:22
12,13:37
12,14:79
12,15:106
13,2:69
13,3:59
13,14:42
13,15:143
13,16:131
13,17:62
13,18:47
14,2:27
14,3:101
14,13:42
14,15:185
14,16:173
14,17:20
14,18:89
14,19:45
14,20:2
14,21:6
14,22:146
14,23:12
14,24:90
15,2:212
15,3:84
15,13:143
15,14:185
15,16:12
15,17:205
15,18:96
16,2:200
16,3:72
16,14:173
16,17:193
16,18:84
16,19:128
16,20:171
16,21:167
16,22:27
16,23:161
16,24:83
16,25:66
16,26:18
16,27:26
16,28:127
16,29:2
16,30:101
16,31:170
16,32:188
16,33:110
16,34:106
17,2:7
17,3:121
17,14:20
17,16:193
17,18:109
17,19:65
18,2:116
18,3:12
18,14:89
18,15:96
18,16:84
18,17:109
18,19:44
18,20:87
18,21:83
18,22:57
18,23:77
18,24:1
18,25:18
18,26:66
18,27:110
18,28:43
18,29:86
18,30:17
18,31:86
18,32:104
18,33:26
18,34:22
18,35:105
18,36:49
18,37:74
18,38:108
18,39:8
18,40:62
18,41:74
18,42:107
19,2:72
19,3:56
19,14:45
19,16:128
19,18:44
19,20:43
19,21:39
19,22:101
20,2:29
20,3:99
20,14:2
20,16:171
20,18:87
20,21:4
20,22:144
20,23:10
20,24:88
20,25:105
20,26:153
20,27:197
20,28:44
20,29:173
20,30:70
20,31:1
20,32:17
20,33:61
20,34:65
20,35:192
21,2:33
21,3:95
21,14:6
21,16:167
21,18:83
21,20:4
21,22:140
21,23:6
21,24:84
21,25:101
21,26:149
21,27:193
21,28:40
21,29:169
21,30:66
21,31:3
21,32:21
21,33:57
21,34:61
21,35:188
22,2:173
22,3:45
22,16:27
22,18:57
22,20:144
22,21:140
22,23:134
22,24:56
22,25:39
23,2:39
23,3:89
23,14:12
23,16:161
23,18:77
23,21:6
23,22:134
23,24:78
23,25:95
23,26:143
23,27:187
23,28:34
23,29:163
23,30:60
23,31:9
23,32:27
23,33:51
23,34:55
23,35:182
23,36:28
24,2:117
24,3:11
24,14:90
24,16:83
24,18:1
24,20:88
24,22:56
24,23:78
24,25:17
24,26:65
24,27:109
24,28:44
24,29:85
24,30:18
24,31:87
24,32:105
24,33:27
24,34:23
24,35:104
24,36:50
25,2:134
25,3:6
25,16:66
25,18:18
25,20:105
25,21:101
25,23:95
25,24:17
25,26:48
26,2:182
26,3:54
26,16:18
26,18:66
26,20:153
26,21:149
26,23:143
26,24:65
26,27:44
27,2:226
27,3:98
27,16:26
27,18:110
27,20:197
27,21:193
27,23:187
27,24:109
27,28:153
28,2:73
28,3:55
28,16:127
28,18:43
28,20:44
28,21:40
28,23:34
28,24:44
28,29:129
28,30:26
28,31:43
28,32:61
28,33:17
28,34:21
29,2:202
29,3:74
29,18:86
29,20:173
29,21:169
29,23:163
29,24:85
29,30:103
29,31:172
29,32:190
29,33:112
29,34:108
29,35:19
30,2:99
30,3:29
30,18:17
30,20:70
30,21:66
30,23:60
30,24:18
30,29:103
30,31:69
30,32:87
30,33:9
30,34:5
30,35:122
31,2:30
31,3:98
31,18:86
31,20:1
31,21:3
31,23:9
31,24:87
31,29:172
31,30:69
31,32:18
31,33:60
31,34:64
31,35:191
32,2:12
32,3:116
32,16:188
32,18:104
32,20:17
32,21:21
32,23:27
32,24:105
32,29:190
32,30:87
32,31:18
32,33:78
32,34:82
32,35:209
33,2:90
33,3:38
33,16:110
33,18:26
33,20:61
33,21:57
33,23:51
33,24:27
33,29:112
33,30:9
33,31:60
33,32:78
33,34:4
33,35:131
34,2:94
34,3:34
34,16:106
34,18:22
34,20:65
34,21:61
34,23:55
34,24:23
34,29:108
34,30:5
34,31:64
34,32:82
34,33:4
34,35:127
35,2:221
35,3:93
35,18:105
35,20:192
35,21:188
35,23:182
35,24:104
35,36:154
36,18:49
36,37:123
37,18:74
37,38:182
37,39:66
37,40:12
38,18:108
38,39:116
38,40:170
38,41:182
39,18:8
39,38:116
39,40:54
39,41:66
40,18:62
40,38:170
40,39:54
40,41:12
41,18:74
41,42:33
42,43:140
42,44:112
42,45:95
42,46:178
42,47:65
43,44:28
43,45:45
43,46:38
43,47:75
43,48:92
43,49:45
43,50:43
44,43:28
44,45:17
44,46:66
44,47:47
44,48:64
44,49:17
44,50:71
45,43:45
45,44:17
45,46:83
45,47:30
45,48:47
45,50:88
45,51:41
45,52:61
46,43:38
46,44:66
46,45:83
46,47:113
46,48:130
46,49:83
46,50:5
47,43:75
47,44:47
47,45:30
47,46:113
47,48:17
47,49:30
47,50:118
47,51:71
47,52:31
48,44:64
48,45:47
48,46:130
48,47:17
48,49:47
48,50:135
48,51:88
48,52:14
49,43:45
49,46:83
49,47:30
49,48:47
49,50:88
49,51:41
49,52:61
50,43:43
50,44:71
50,45:88
50,47:118
50,48:135
50,49:88
50,51:47
50,52:149
51,52:102
51,53:2
52,51:102
52,53:104

<setup times backward>
1,1:228
1,8:310
2,1:320
2,2:228
2,3:356
2,4:288
2,5:298
2,6:373
2,7:325
2,8:402
2,9:272
2,10:355
2,11:425
2,12:334
2,13:297
2,14:255
2,15:440
2,16:428
2,17:235
2,18:344
2,19:300
2,20:257
2,21:261
2,22:401
2,23:267
2,24:345
2,25:362
2,26:410
2,27:454
2,28:301
2,29:430
2,30:327
2,31:258
2,32:240
2,33:318
2,34:322
2,35:449
3,1:192
3,2:100
3,3:228
3,4:160
3,5:170
3,6:245
3,7:197
3,8:274
3,9:144
3,10:227
3,11:297
3,12:206
3,13:169
3,14:127
3,15:312
3,16:300
3,17:107
3,18:216
3,19:172
3,20:129
3,21:133
3,22:273
3,23:139
3,24:217
3,25:234
3,26:282
3,27:326
3,28:173
3,29:302
3,30:199
3,31:130
3,32:112
3,33:190
3,34:194
3,35:321
4,1:260
4,2:168
4,3:296
4,4:228
4,5:238
4,6:313
4,7:265
4,8:342
5,1:250
5,2:158
5,3:286
5,4:218
5,5:228
5,6:303
5,7:255
5,8:332
6,1:175
6,2:83
6,3:211
6,4:143
6,5:153
6,6:228
6,7:180
6,8:257
7,1:223
7,2:131
7,3:259
7,4:191
7,5:201
7,6:276
7,7:228
7,8:305
8,1:146
8,2:54
8,3:182
8,4:114
8,5:124
8,6:199
8,7:151
8,8:228
9,1:276
9,2:184
9,3:312
9,4:244
9,5:254
9,6:329
9,7:281
9,8:358
9,9:228
10,1:193
10,2:101
10,3:229
10,4:161
10,5:171
10,6:246
10,7:198
10,8:275
10,9:145
10,10:228
11,1:123
11,2:31
11,3:159
11,4:91
11,5:101
11,6:176
11,7:128
11,8:205
11,9:75
11,10:158
11,11:228
12,1:214
12,2:122
12,3:250
12,4:182
12,5:192
12,6:267
12,7:219
12,8:296
12,9:166
12,10:249
12,11:319
12,12:228
13,1:251
13,2:159
13,3:287
13,4:219
13,5:229
13,6:304
13,7:256
13,8:333
13,9:203
13,10:286
13,11:356
13,12:265
13,13:228
13,14:186
13,15:371
14,1:293
14,2:201
14,3:329
14,4:261
14,5:271
14,6:346
14,7:298
14,8:375
14,9:245
14,10:328
14,11:398
14,12:307
14,13:270
14,14:228
14,15:413
14,16:401
14,17:208
14,18:317
14,19:273
14,20:230
14,21:234
14,23:240
14,24:318
15,1:108
15,2:16
15,3:144
15,4:76
15,5:86
15,6:161
15,7:113
15,8:190
15,9:60
15,10:143
15,11:213
15,12:122
15,13:85
15,14:43
15,15:228
15,18:132
16,1:120
16,2:28
16,3:156
16,4:88
16,5:98
16,6:173
16,7:125
16,8:202
16,9:72
16,10:155
16,11:225
16,12:134
16,13:97
16,14:55
16,15:240
16,16:228
16,17:35
16,18:144
16,19:100
16,20:57
16,21:61
16,22:201
16,23:67
16,24:145
16,25:162
16,26:210
16,27:254
16,28:101
16,32:40
16,33:118
16,34:122
17,1:313
17,2:221
17,3:349
17,4:281
17,5:291
17,6:366
17,7:318
17,8:395
17,9:265
17,10:348
17,11:418
17,12:327
17,13:290
17,14:248
17,15:433
17,16:421
17,17:228
17,18:337
18,1:204
18,2:112
18,3:240
18,4:172
18,5:182
18,6:257
18,7:209
18,8:286
18,9:156
18,10:239
18,11:309
18,12:218
18,13:181
18,14:139
18,15:324
18,16:312
18,17:119
18,18:228
18,19:184
18,20:141
18,21:145
18,22:285
18,23:151
18,24:229
18,25:246
18,26:294
18,27:338
18,28:185
18,29:314
18,30:211
18,31:142
18,32:124
18,33:202
18,34:206
18,35:333
18,36:179
18,37:302
18,38:120
18,39:236
18,40:290
18,41:302
19,1:248
19,2:156
19,3:284
19,4:216
19,5:226
19,6:301
19,7:253
19,8:330
19,9:200
19,10:283
19,11:353
19,12:262
19,13:225
19,14:183
19,15:368
19,16:356
19,17:163
19,18:272
19,19:228
20,1:291
20,2:199
20,3:327
20,4:259
20,5:269
20,6:344
20,7:296
20,8:373
20,9:243
20,10:326
20,11:396
20,12:305
20,13:268
20,14:226
20,15:411
20,16:399
20,17:206
20,18:315
20,19:271
20,20:228
20,21:232
20,22:372
20,24:316
20,25:333
20,26:381
20,27:425
20,28:272
20,29:401
20,30:298
20,31:229
20,32:211
20,33:289
20,34:293
20,35:420
21,1:287
21,2:195
21,3:323
21,4:255
21,5:265
21,6:340
21,7:292
21,8:369
21,9:239
21,10:322
21,11:392
21,12:301
21,13:264
21,14:222
21,15:407
21,16:395
21,17:202
21,18:311
21,19:267
21,20:224
21,21:228
21,22:368
21,23:234
21,25:329
21,26:377
21,27:421
21,28:268
21,29:397
21,30:294
21,31:225
21,32:207
21,33:285
21,34:289
21,35:416
22,1:147
22,2:55
22,3:183
22,4:115
22,5:125
22,6:200
22,7:152
22,8:229
22,9:99
22,10:182
22,11:252
22,12:161
22,13:124
22,14:82
22,15:267
22,16:255
22,17:62
22,18:171
22,19:127
22,20:84
22,21:88
22,22:228
22,23:94
22,24:172
23,1:281
23,2:189
23,3:317
23,4:249
23,5:259
23,6:334
23,7:286
23,8:363
23,9:233
23,10:316
23,11:386
23,12:295
23,13:258
23,14:216
23,15:401
23,16:389
23,17:196
23,18:305
23,19:261
23,20:218
23,21:222
23,22:362
23,23:228
23,24:306
23,25:323
23,26:371
23,27:415
23,28:262
23,29:391
23,30:288
23,31:219
23,32:201
23,33:279
23,34:283
23,35:410
24,1:203
24,2:111
24,3:239
24,4:171
24,5:181
24,6:256
24,7:208
24,8:285
24,9:155
24,10:238
24,11:308
24,12:217
24,13:180
24,14:138
24,15:323
24,16:311
24,17:118
24,18:227
24,19:183
24,20:140
24,21:144
24,22:284
24,23:150
24,24:228
24,25:245
24,26:293
24,27:337
24,28:184
24,29:313
24,30:210
24,31:141
24,32:123
24,33:201
24,34:205
24,35:332
25,1:186
25,2:94
25,3:222
25,4:154
25,5:164
25,6:239
25,7:191
25,8:268
25,9:138
25,10:221
25,11:291
25,12:200
25,13:163
25,14:121
25,15:306
25,16:294
25,17:101
25,18:210
25,19:166
25,20:123
25,21:127
25,22:267
25,23:133
25,24:211
25,25:228
26,1:138
26,2:46
26,3:174
26,4:106
26,5:116
26,6:191
26,7:143
26,8:220
26,9:90
26,10:173
26,11:243
26,12:152
26,13:115
26,14:73
26,15:258
26,16:246
26,17:53
26,18:162
26,19:118
26,20:75
26,21:79
26,22:219
26,23:85
26,24:163
26,25:180
26,26:228
27,1:94
27,2:2
27,3:130
27,4:62
27,5:72
27,6:147
27,7:99
27,8:176
27,9:46
27,10:129
27,11:199
27,12:108
27,13:71
27,14:29
27,15:214
27,16:202
27,17:9
27,18:118
27,19:74
27,20:31
27,21:35
27,22:175
27,23:41
27,24:119
27,25:136
27,26:184
27,27:228
28,1:247
28,2:155
28,3:283
28,4:215
28,5:225
28,6:300
28,7:252
28,8:329
28,9:199
28,10:282
28,11:352
28,12:261
28,13:224
28,14:182
28,15:367
28,16:355
28,17:162
28,18:271
28,19:227
28,20:184
28,21:188
28,22:328
28,23:194
28,24:272
28,25:289
28,26:337
28,27:381
28,28:228
29,1:118
29,2:26
29,3:154
29,4:86
29,5:96
29,6:171
29,7:123
29,8:200
29,9:70
29,10:153
29,11:223
29,12:132
29,13:95
29,14:53
29,15:238
29,16:226
29,17:33
29,18:142
29,19:98
29,20:55
29,21:59
29,22:199
29,23:65
29,24:143
29,25:160
29,26:208
29,27:252
29,28:99
29,29:228
29,30:125
29,31:56
29,32:38
29,33:116
29,34:120
30,1:221
30,2:129
30,3:257
30,4:189
30,5:199
30,6:274
30,7:226
30,8:303
30,9:173
30,10:256
30,11:326
30,12:235
30,13:198
30,14:156
30,15:341
30,16:329
30,17:136
30,18:245
30,19:201
30,20:158
30,21:162
30,22:302
30,23:168
30,24:246
30,25:263
30,26:311
30,27:355
30,28:202
30,29:331
30,30:228
30,31:159
30,32:141
30,33:219
30,34:223
31,1:290
31,2:198
31,3:326
31,4:258
31,5:268
31,6:343
31,7:295
31,8:372
31,9:242
31,10:325
31,11:395
31,12:304
31,13:267
31,14:225
31,15:410
31,16:398
31,17:205
31,18:314
31,19:270
31,20:227
31,21:231
31,22:371
31,23:237
31,24:315
31,25:332
31,26:380
31,27:424
31,28:271
31,29:400
31,30:297
31,31:228
31,32:210
31,33:288
31,34:292
32,1:308
32,2:216
32,3:344
32,4:276
32,5:286
32,6:361
32,7:313
32,8:390
32,9:260
32,10:343
32,11:413
32,12:322
32,13:285
32,14:243
32,15:428
32,16:416
32,17:223
32,18:332
32,19:288
32,20:245
32,21:249
32,22:389
32,23:255
32,24:333
32,25:350
32,26:398
32,27:442
32,28:289
32,29:418
32,30:315
32,31:246
32,32:228
32,33:306
32,34:310
33,1:230
33,2:138
33,3:266
33,4:198
33,5:208
33,6:283
33,7:235
33,8:312
33,9:182
33,10:265
33,11:335
33,12:244
33,13:207
33,14:165
33,15:350
33,16:338
33,17:145
33,18:254
33,19:210
33,20:167
33,21:171
33,22:311
33,23:177
33,24:255
33,25:272
33,26:320
33,27:364
33,28:211
33,29:340
33,30:237
33,31:168
33,32:150
33,33:228
33,34:232
34,1:226
34,2:134
34,3:262
34,4:194
34,5:204
34,6:279
34,7:231
34,8:308
34,9:178
34,10:261
34,11:331
34,12:240
34,13:203
34,14:161
34,15:346
34,16:334
34,17:141
34,18:250
34,19:206
34,20:163
34,21:167
34,22:307
34,23:173
34,24:251
34,25:268
34,26:316
34,27:360
34,28:207
34,29:336
34,30:233
34,31:164
34,32:146
34,33:224
34,34:228
35,1:99
35,2:7
35,3:135
35,4:67
35,5:77
35,6:152
35,7:104
35,8:181
35,9:51
35,10:134
35,11:204
35,12:113
35,13:76
35,14:34
35,15:219
35,16:207
35,17:14
35,18:123
35,19:79
35,20:36
35,21:40
35,22:180
35,23:46
35,24:124
35,25:141
35,26:189
35,27:233
35,28:80
35,29:209
35,30:106
35,31:37
35,32:19
35,33:97
35,34:101
35,35:228
36,1:253
36,2:161
36,3:289
36,4:221
36,5:231
36,6:306
36,7:258
36,8:335
36,9:205
36,10:288
36,11:358
36,12:267
36,13:230
36,14:188
36,15:373
36,16:361
36,17:168
36,18:277
36,19:233
36,20:190
36,21:194
36,22:334
36,23:200
36,24:278
36,25:295
36,26:343
36,27:387
36,28:234
36,29:363
36,30:260
36,31:191
36,32:173
36,33:251
36,34:255
36,35:382
36,36:228
37,1:130
37,2:38
37,3:166
37,4:98
37,5:108
37,6:183
37,7:135
37,8:212
37,9:82
37,10:165
37,11:235
37,12:144
37,13:107
37,14:65
37,15:250
37,16:238
37,17:45
37,18:154
37,19:110
37,20:67
37,21:71
37,22:211
37,23:77
37,24:155
37,25:172
37,26:220
37,27:264
37,28:111
37,29:240
37,30:137
37,31:68
37,32:50
37,33:128
37,34:132
37,35:259
37,36:105
37,37:228
38,1:312
38,2:220
38,3:348
38,4:280
38,5:290
38,6:365
38,7:317
38,8:394
38,9:264
38,10:347
38,11:417
38,12:326
38,13:289
38,14:247
38,15:432
38,16:420
38,17:227
38,18:336
38,19:292
38,20:249
38,21:253
38,22:393
38,23:259
38,24:337
38,25:354
38,26:402
38,27:446
38,28:293
38,29:422
38,30:319
38,31:250
38,32:232
38,33:310
38,34:314
38,35:441
38,36:287
38,37:410
38,38:228
38,39:344
38,40:398
39,1:196
39,2:104
39,3:232
39,4:164
39,5:174
39,6:249
39,7:201
39,8:278
39,9:148
39,10:231
39,11:301
39,12:210
39,13:173
39,14:131
39,15:316
39,16:304
39,17:111
39,18:220
39,19:176
39,20:133
39,21:137
39,22:277
39,23:143
39,24:221
39,25:238
39,26:286
39,27:330
39,28:177
39,29:306
39,30:203
39,31:134
39,32:116
39,33:194
39,34:198
39,35:325
39,36:171
39,37:294
39,38:112
39,39:228
39,40:282
40,1:142
40,2:50
40,3:178
40,4:110
40,5:120
40,6:195
40,7:147
40,8:224
40,9:94
40,10:177
40,11:247
40,12:156
40,13:119
40,14:77
40,15:262
40,16:250
40,17:57
40,18:166
40,19:122
40,20:79
40,21:83
40,22:223
40,23:89
40,24:167
40,25:184
40,26:232
40,27:276
40,28:123
40,29:252
40,30:149
40,31:80
40,32:62
40,33:140
40,34:144
40,35:271
40,36:117
40,37:240
40,38:58
40,39:174
40,40:228
41,1:130
41,2:38
41,3:166
41,4:98
41,5:108
41,6:183
41,7:135
41,8:212
41,9:82
41,10:165
41,11:235
41,12:144
41,13:107
41,14:65
41,15:250
41,16:238
41,17:45
41,18:154
41,19:110
41,20:67
41,21:71
41,22:211
41,23:77
41,24:155
41,25:172
41,26:220
41,27:264
41,28:111
41,29:240
41,30:137
41,31:68
41,32:50
41,33:128
41,34:132
41,35:259
41,36:105
41,37:228
41,38:46
41,39:162
41,40:216
41,41:228
42,1:97
42,2:5
42,3:133
42,4:65
42,5:75
42,6:150
42,7:102
42,8:179
42,9:49
42,10:132
42,11:202
42,12:111
42,13:74
42,14:32
42,15:217
42,16:205
42,17:12
42,18:121
42,19:77
42,20:34
42,21:38
42,22:178
42,23:44
42,24:122
42,25:139
42,26:187
42,27:231
42,28:78
42,29:207
42,30:104
42,31:35
42,32:17
42,33:95
42,34:99
42,35:226
42,36:72
42,37:195
42,38:13
42,39:129
42,40:183
42,41:195
42,42:228
43,1:237
43,2:145
43,3:273
43,4:205
43,5:215
43,6:290
43,7:242
43,8:319
43,9:189
43,10:272
43,11:342
43,12:251
43,13:214
43,14:172
43,15:357
43,16:345
43,17:152
43,18:261
43,19:217
43,20:174
43,21:178
43,22:318
43,23:184
43,24:262
43,25:279
43,26:327
43,27:371
43,28:218
43,29:347
43,30:244
43,31:175
43,32:157
43,33:235
43,34:239
43,35:366
43,36:212
43,37:335
43,38:153
43,39:269
43,40:323
43,41:335
43,42:368
43,43:228
43,44:256
43,45:273
43,46:190
43,47:303
43,49:273
43,50:185
44,1:209
44,2:117
44,3:245
44,4:177
44,5:187
44,6:262
44,7:214
44,8:291
44,9:161
44,10:244
44,11:314
44,12:223
44,13:186
44,14:144
44,15:329
44,16:317
44,17:124
44,18:233
44,19:189
44,20:146
44,21:150
44,22:290
44,23:156
44,24:234
44,25:251
44,26:299
44,27:343
44,28:190
44,29:319
44,30:216
44,31:147
44,32:129
44,33:207
44,34:211
44,35:338
44,36:184
44,37:307
44,38:125
44,39:241
44,40:295
44,41:307
44,42:340
44,43:200
44,44:228
44,45:245
44,46:162
44,47:275
44,48:292
44,50:157
45,1:192
45,2:100
45,3:228
45,4:160
45,5:170
45,6:245
45,7:197
45,8:274
45,9:144
45,10:227
45,11:297
45,12:206
45,13:169
45,14:127
45,15:312
45,16:300
45,17:107
45,18:216
45,19:172
45,20:129
45,21:133
45,22:273
45,23:139
45,24:217
45,25:234
45,26:282
45,27:326
45,28:173
45,29:302
45,30:199
45,31:130
45,32:112
45,33:190
45,34:194
45,35:321
45,36:167
45,37:290
45,38:108
45,39:224
45,40:278
45,41:290
45,42:323
45,43:183
45,44:211
45,45:228
45,46:145
45,47:258
45,48:275
45,49:228
45,50:140
46,1:275
46,2:183
46,3:311
46,4:243
46,5:253
46,6:328
46,7:280
46,8:357
46,9:227
46,10:310
46,11:380
46,12:289
46,13:252
46,14:210
46,15:395
46,16:383
46,17:190
46,18:299
46,19:255
46,20:212
46,21:216
46,22:356
46,23:222
46,24:300
46,25:317
46,26:365
46,27:409
46,28:256
46,29:385
46,30:282
46,31:213
46,32:195
46,33:273
46,34:277
46,35:404
46,36:250
46,37:373
46,38:191
46,39:307
46,40:361
46,41:373
46,42:406
46,43:266
46,44:294
46,45:311
46,46:228
46,47:341
46,48:358
46,49:311
47,1:162
47,2:70
47,3:198
47,4:130
47,5:140
47,6:215
47,7:167
47,8:244
47,9:114
47,10:197
47,11:267
47,12:176
47,13:139
47,14:97
47,15:282
47,16:270
47,17:77
47,18:186
47,19:142
47,20:99
47,21:103
47,22:243
47,23:109
47,24:187
47,25:204
47,26:252
47,27:296
47,28:143
47,29:272
47,30:169
47,31:100
47,32:82
47,33:160
47,34:164
47,35:291
47,36:137
47,37:260
47,38:78
47,39:194
47,40:248
47,41:260
47,42:293
47,43:153
47,44:181
47,45:198
47,46:115
47,47:228
47,48:245
47,49:198
47,50:110
48,1:145
48,2:53
48,3:181
48,4:113
48,5:123
48,6:198
48,7:150
48,8:227
48,9:97
48,10:180
48,11:250
48,12:159
48,13:122
48,14:80
48,15:265
48,16:253
48,17:60
48,18:169
48,19:125
48,20:82
48,21:86
48,22:226
48,23:92
48,24:170
48,25:187
48,26:235
48,27:279
48,28:126
48,29:255
48,30:152
48,31:83
48,32:65
48,33:143
48,34:147
48,35:274
48,36:120
48,37:243
48,38:61
48,39:177
48,40:231
48,41:243
48,42:276
48,43:136
48,44:164
48,45:181
48,46:98
48,47:211
48,48:228
48,49:181
48,50:93
49,1:192
49,2:100
49,3:228
49,4:160
49,5:170
49,6:245
49,7:197
49,8:274
49,9:144
49,10:227
49,11:297
49,12:206
49,13:169
49,14:127
49,15:312
49,16:300
49,17:107
49,18:216
49,19:172
49,20:129
49,21:133
49,22:273
49,23:139
49,24:217
49,25:234
49,26:282
49,27:326
49,28:173
49,29:302
49,30:199
49,31:130
49,32:112
49,33:190
49,34:194
49,35:321
49,36:167
49,37:290
49,38:108
49,39:224
49,40:278
49,41:290
49,42:323
49,43:183
49,44:211
49,45:228
49,46:145
49,47:258
49,48:275
49,49:228
49,50:140
50,1:280
50,2:188
50,3:316
50,4:248
50,5:258
50,6:333
50,7:285
50,8:362
50,9:232
50,10:315
50,11:385
50,12:294
50,13:257
50,14:215
50,15:400
50,16:388
50,17:195
50,18:304
50,19:260
50,20:217
50,21:221
50,22:361
50,23:227
50,24:305
50,25:322
50,26:370
50,27:414
50,28:261
50,29:390
50,30:287
50,31:218
50,32:200
50,33:278
50,34:282
50,35:409
50,36:255
50,37:378
50,38:196
50,39:312
50,40:366
50,41:378
50,42:411
50,43:271
50,44:299
50,45:316
50,46:233
50,47:346
50,48:363
50,49:316
50,50:228
51,1:233
51,2:141
51,3:269
51,4:201
51,5:211
51,6:286
51,7:238
51,8:315
51,9:185
51,10:268
51,11:338
51,12:247
51,13:210
51,14:168
51,15:353
51,16:341
51,17:148
51,18:257
51,19:213
51,20:170
51,21:174
51,22:314
51,23:180
51,24:258
51,25:275
51,26:323
51,27:367
51,28:214
51,29:343
51,30:240
51,31:171
51,32:153
51,33:231
51,34:235
51,35:362
51,36:208
51,37:331
51,38:149
51,39:265
51,40:319
51,41:331
51,42:364
51,43:224
51,44:252
51,45:269
51,46:186
51,47:299
51,48:316
51,49:269
51,50:181
51,51:228
51,52:330
52,1:131
52,2:39
52,3:167
52,4:99
52,5:109
52,6:184
52,7:136
52,8:213
52,9:83
52,10:166
52,11:236
52,12:145
52,13:108
52,14:66
52,15:251
52,16:239
52,17:46
52,18:155
52,19:111
52,20:68
52,21:72
52,22:212
52,23:78
52,24:156
52,25:173
52,26:221
52,27:265
52,28:112
52,29:241
52,30:138
52,31:69
52,32:51
52,33:129
52,34:133
52,35:260
52,36:106
52,37:229
52,38:47
52,39:163
52,40:217
52,41:229
52,42:262
52,43:122
52,44:150
52,45:167
52,46:84
52,47:197
52,48:214
52,49:167
52,50:79
52,51:126
52,52:228
53,1:235
53,2:143
53,3:271
53,4:203
53,5:213
53,6:288
53,7:240
53,8:317
53,9:187
53,10:270
53,11:340
53,12:249
53,13:212
53,14:170
53,15:355
53,16:343
53,17:150
53,18:259
53,19:215
53,20:172
53,21:176
53,22:316
53,23:182
53,24:260
53,25:277
53,26:325
53,27:369
53,28:216
53,29:345
53,30:242
53,31:173
53,32:155
53,33:233
53,34:237
53,35:364
53,36:210
53,37:333
53,38:151
53,39:267
53,40:321
53,41:333
53,42:366
53,43:226
53,44:254
53,45:271
53,46:188
53,47:301
53,48:318
53,49:271
53,50:183
53,51:230
53,52:332
53,53:228

<end>

<optimal SALBP-1 value>
8


<rand seed>
467321153

